
Gurobi 6.0.4 (win64) logging started 06/23/15 15:04:48

Optimize a model with 1144 rows, 406 columns and 4646 nonzeros
Coefficient statistics:
  Matrix range    [3e-03, 2e+01]
  Objective range [2e-02, 3e+00]
  Bounds range    [1e+00, 1e+00]
  RHS range       [5e-01, 9e+00]
Presolve removed 728 rows and 199 columns
Presolve time: 0.05s
Presolved: 416 rows, 207 columns, 2209 nonzeros
Variable types: 2 continuous, 205 integer (205 binary)
Found heuristic solution: objective 2.4750972

Root relaxation: objective 2.089725e+00, 345 iterations, 0.05 seconds

    Nodes    |    Current Node    |     Objective Bounds      |     Work
 Expl Unexpl |  Obj  Depth IntInf | Incumbent    BestBd   Gap | It/Node Time

*    0     0               0       2.0897248    2.08972  0.00%     -    0s

Explored 0 nodes (404 simplex iterations) in 0.20 seconds
Thread count was 2 (of 4 available processors)

Optimal solution found (tolerance 1.00e-04)
Best objective 2.089724791492e+00, best bound 2.089724791492e+00, gap 0.0%

Gurobi 6.0.4 (win64) logging started 06/23/15 15:06:36

Optimize a model with 1144 rows, 406 columns and 4646 nonzeros
Coefficient statistics:
  Matrix range    [3e-03, 2e+01]
  Objective range [2e-02, 3e+00]
  Bounds range    [1e+00, 1e+00]
  RHS range       [5e-01, 9e+00]
Presolve removed 728 rows and 199 columns
Presolve time: 0.05s
Presolved: 416 rows, 207 columns, 2209 nonzeros
Variable types: 2 continuous, 205 integer (205 binary)
Found heuristic solution: objective 2.4750972

Root relaxation: objective 2.089725e+00, 345 iterations, 0.02 seconds

    Nodes    |    Current Node    |     Objective Bounds      |     Work
 Expl Unexpl |  Obj  Depth IntInf | Incumbent    BestBd   Gap | It/Node Time

*    0     0               0       2.0897248    2.08972  0.00%     -    0s

Explored 0 nodes (404 simplex iterations) in 0.11 seconds
Thread count was 2 (of 4 available processors)

Optimal solution found (tolerance 1.00e-04)
Best objective 2.089724791492e+00, best bound 2.089724791492e+00, gap 0.0%

Gurobi 6.0.4 (win64) logging started 06/23/15 15:27:39

Optimize a model with 1144 rows, 406 columns and 4646 nonzeros
Coefficient statistics:
  Matrix range    [3e-03, 2e+01]
  Objective range [2e-02, 3e+00]
  Bounds range    [1e+00, 1e+00]
  RHS range       [5e-01, 9e+00]
Presolve removed 728 rows and 199 columns
Presolve time: 0.05s
Presolved: 416 rows, 207 columns, 2209 nonzeros
Variable types: 2 continuous, 205 integer (205 binary)
Found heuristic solution: objective 2.4750972

Root relaxation: objective 2.089725e+00, 345 iterations, 0.02 seconds

    Nodes    |    Current Node    |     Objective Bounds      |     Work
 Expl Unexpl |  Obj  Depth IntInf | Incumbent    BestBd   Gap | It/Node Time

*    0     0               0       2.0897248    2.08972  0.00%     -    0s

Explored 0 nodes (404 simplex iterations) in 0.12 seconds
Thread count was 2 (of 4 available processors)

Optimal solution found (tolerance 1.00e-04)
Best objective 2.089724791492e+00, best bound 2.089724791492e+00, gap 0.0%

Gurobi 6.0.4 (win64) logging started 06/23/15 15:28:23

Optimize a model with 1144 rows, 406 columns and 4646 nonzeros
Coefficient statistics:
  Matrix range    [3e-03, 2e+01]
  Objective range [2e-02, 3e+00]
  Bounds range    [1e+00, 1e+00]
  RHS range       [5e-01, 9e+00]
Presolve removed 728 rows and 199 columns
Presolve time: 0.05s
Presolved: 416 rows, 207 columns, 2209 nonzeros
Variable types: 2 continuous, 205 integer (205 binary)
Found heuristic solution: objective 2.4750972

Root relaxation: objective 2.089725e+00, 345 iterations, 0.02 seconds

    Nodes    |    Current Node    |     Objective Bounds      |     Work
 Expl Unexpl |  Obj  Depth IntInf | Incumbent    BestBd   Gap | It/Node Time

*    0     0               0       2.0897248    2.08972  0.00%     -    0s

Explored 0 nodes (404 simplex iterations) in 0.11 seconds
Thread count was 2 (of 4 available processors)

Optimal solution found (tolerance 1.00e-04)
Best objective 2.089724791492e+00, best bound 2.089724791492e+00, gap 0.0%

Gurobi 6.0.4 (win64) logging started 06/23/15 15:45:57

Optimize a model with 1144 rows, 406 columns and 4646 nonzeros
Coefficient statistics:
  Matrix range    [3e-03, 2e+01]
  Objective range [2e-02, 3e+00]
  Bounds range    [1e+00, 1e+00]
  RHS range       [5e-01, 9e+00]
Presolve removed 728 rows and 199 columns
Presolve time: 0.05s
Presolved: 416 rows, 207 columns, 2209 nonzeros
Variable types: 2 continuous, 205 integer (205 binary)
Found heuristic solution: objective 2.4750972

Root relaxation: objective 2.089725e+00, 345 iterations, 0.02 seconds

    Nodes    |    Current Node    |     Objective Bounds      |     Work
 Expl Unexpl |  Obj  Depth IntInf | Incumbent    BestBd   Gap | It/Node Time

*    0     0               0       2.0897248    2.08972  0.00%     -    0s

Explored 0 nodes (404 simplex iterations) in 0.11 seconds
Thread count was 2 (of 4 available processors)

Optimal solution found (tolerance 1.00e-04)
Best objective 2.089724791492e+00, best bound 2.089724791492e+00, gap 0.0%

Gurobi 6.0.4 (win64) logging started 06/23/15 15:46:07

Optimize a model with 1144 rows, 406 columns and 4646 nonzeros
Coefficient statistics:
  Matrix range    [3e-03, 2e+01]
  Objective range [2e-02, 3e+00]
  Bounds range    [1e+00, 1e+00]
  RHS range       [5e-01, 9e+00]
Presolve removed 728 rows and 199 columns
Presolve time: 0.05s
Presolved: 416 rows, 207 columns, 2209 nonzeros
Variable types: 2 continuous, 205 integer (205 binary)
Found heuristic solution: objective 2.4750972

Root relaxation: objective 2.089725e+00, 345 iterations, 0.03 seconds

    Nodes    |    Current Node    |     Objective Bounds      |     Work
 Expl Unexpl |  Obj  Depth IntInf | Incumbent    BestBd   Gap | It/Node Time

*    0     0               0       2.0897248    2.08972  0.00%     -    0s

Explored 0 nodes (404 simplex iterations) in 0.12 seconds
Thread count was 2 (of 4 available processors)

Optimal solution found (tolerance 1.00e-04)
Best objective 2.089724791492e+00, best bound 2.089724791492e+00, gap 0.0%

Gurobi 6.0.4 (win64) logging started 06/23/15 17:32:44

Optimize a model with 1144 rows, 406 columns and 4646 nonzeros
Coefficient statistics:
  Matrix range    [3e-03, 2e+01]
  Objective range [2e-02, 3e+00]
  Bounds range    [1e+00, 1e+00]
  RHS range       [5e-01, 9e+00]
Presolve removed 728 rows and 199 columns
Presolve time: 0.08s
Presolved: 416 rows, 207 columns, 2209 nonzeros
Variable types: 2 continuous, 205 integer (205 binary)
Found heuristic solution: objective 2.4750972

Root relaxation: objective 2.089725e+00, 345 iterations, 0.03 seconds

    Nodes    |    Current Node    |     Objective Bounds      |     Work
 Expl Unexpl |  Obj  Depth IntInf | Incumbent    BestBd   Gap | It/Node Time

*    0     0               0       2.0897248    2.08972  0.00%     -    0s

Explored 0 nodes (404 simplex iterations) in 0.17 seconds
Thread count was 2 (of 4 available processors)

Optimal solution found (tolerance 1.00e-04)
Best objective 2.089724791492e+00, best bound 2.089724791492e+00, gap 0.0%

Gurobi 6.0.4 (win64) logging started 06/23/15 17:34:32

Optimize a model with 1144 rows, 406 columns and 4646 nonzeros
Coefficient statistics:
  Matrix range    [3e-03, 2e+01]
  Objective range [2e-02, 3e+00]
  Bounds range    [1e+00, 1e+00]
  RHS range       [5e-01, 9e+00]
Presolve removed 728 rows and 199 columns
Presolve time: 0.05s
Presolved: 416 rows, 207 columns, 2209 nonzeros
Variable types: 2 continuous, 205 integer (205 binary)
Found heuristic solution: objective 2.4750972

Root relaxation: objective 2.089725e+00, 345 iterations, 0.02 seconds

    Nodes    |    Current Node    |     Objective Bounds      |     Work
 Expl Unexpl |  Obj  Depth IntInf | Incumbent    BestBd   Gap | It/Node Time

*    0     0               0       2.0897248    2.08972  0.00%     -    0s

Explored 0 nodes (404 simplex iterations) in 0.11 seconds
Thread count was 2 (of 4 available processors)

Optimal solution found (tolerance 1.00e-04)
Best objective 2.089724791492e+00, best bound 2.089724791492e+00, gap 0.0%

Gurobi 6.0.4 (win64) logging started 06/23/15 17:37:11

Optimize a model with 1144 rows, 406 columns and 4646 nonzeros
Coefficient statistics:
  Matrix range    [3e-03, 2e+01]
  Objective range [2e-02, 3e+00]
  Bounds range    [1e+00, 1e+00]
  RHS range       [5e-01, 9e+00]
Presolve removed 728 rows and 199 columns
Presolve time: 0.06s
Presolved: 416 rows, 207 columns, 2224 nonzeros
Variable types: 2 continuous, 205 integer (205 binary)
Found heuristic solution: objective 2.1354882

Root relaxation: objective 2.091470e+00, 258 iterations, 0.03 seconds

    Nodes    |    Current Node    |     Objective Bounds      |     Work
 Expl Unexpl |  Obj  Depth IntInf | Incumbent    BestBd   Gap | It/Node Time

*    0     0               0       2.0914704    2.09147  0.00%     -    0s

Explored 0 nodes (258 simplex iterations) in 0.12 seconds
Thread count was 2 (of 4 available processors)

Optimal solution found (tolerance 1.00e-04)
Best objective 2.091470411254e+00, best bound 2.091470411254e+00, gap 0.0%

Gurobi 6.0.4 (win64) logging started 06/23/15 17:46:56

Optimize a model with 1144 rows, 406 columns and 4646 nonzeros
Coefficient statistics:
  Matrix range    [3e-03, 2e+01]
  Objective range [2e-02, 3e+00]
  Bounds range    [1e+00, 1e+00]
  RHS range       [5e-01, 9e+00]
Presolve removed 728 rows and 199 columns
Presolve time: 0.07s
Presolved: 416 rows, 207 columns, 2209 nonzeros
Variable types: 2 continuous, 205 integer (205 binary)
Found heuristic solution: objective 2.4750972

Root relaxation: objective 2.089725e+00, 345 iterations, 0.03 seconds

    Nodes    |    Current Node    |     Objective Bounds      |     Work
 Expl Unexpl |  Obj  Depth IntInf | Incumbent    BestBd   Gap | It/Node Time

*    0     0               0       2.0897248    2.08972  0.00%     -    0s

Explored 0 nodes (404 simplex iterations) in 0.14 seconds
Thread count was 2 (of 4 available processors)

Optimal solution found (tolerance 1.00e-04)
Best objective 2.089724791492e+00, best bound 2.089724791492e+00, gap 0.0%

Gurobi 6.0.4 (win64) logging started 06/23/15 17:48:18

Optimize a model with 1144 rows, 406 columns and 4646 nonzeros
Coefficient statistics:
  Matrix range    [3e-03, 2e+01]
  Objective range [2e-02, 3e+00]
  Bounds range    [1e+00, 1e+00]
  RHS range       [5e-01, 9e+00]
Presolve removed 728 rows and 199 columns
Presolve time: 0.09s
Presolved: 416 rows, 207 columns, 2209 nonzeros
Variable types: 2 continuous, 205 integer (205 binary)
Found heuristic solution: objective 2.4750972

Root relaxation: objective 2.089725e+00, 345 iterations, 0.03 seconds

    Nodes    |    Current Node    |     Objective Bounds      |     Work
 Expl Unexpl |  Obj  Depth IntInf | Incumbent    BestBd   Gap | It/Node Time

*    0     0               0       2.0897248    2.08972  0.00%     -    0s

Explored 0 nodes (404 simplex iterations) in 0.17 seconds
Thread count was 2 (of 4 available processors)

Optimal solution found (tolerance 1.00e-04)
Best objective 2.089724791492e+00, best bound 2.089724791492e+00, gap 0.0%

Gurobi 6.0.4 (win64) logging started 06/23/15 17:49:51

Optimize a model with 1144 rows, 406 columns and 4646 nonzeros
Coefficient statistics:
  Matrix range    [3e-03, 2e+01]
  Objective range [2e-02, 3e+00]
  Bounds range    [1e+00, 1e+00]
  RHS range       [5e-01, 9e+00]
Presolve removed 728 rows and 199 columns
Presolve time: 0.05s
Presolved: 416 rows, 207 columns, 2209 nonzeros
Variable types: 2 continuous, 205 integer (205 binary)
Found heuristic solution: objective 2.4750972

Root relaxation: objective 2.089725e+00, 345 iterations, 0.03 seconds

    Nodes    |    Current Node    |     Objective Bounds      |     Work
 Expl Unexpl |  Obj  Depth IntInf | Incumbent    BestBd   Gap | It/Node Time

*    0     0               0       2.0897248    2.08972  0.00%     -    0s

Explored 0 nodes (404 simplex iterations) in 0.12 seconds
Thread count was 2 (of 4 available processors)

Optimal solution found (tolerance 1.00e-04)
Best objective 2.089724791492e+00, best bound 2.089724791492e+00, gap 0.0%

Gurobi 6.0.4 (win64) logging started 06/23/15 17:50:03

Optimize a model with 1144 rows, 406 columns and 4646 nonzeros
Coefficient statistics:
  Matrix range    [3e-03, 2e+01]
  Objective range [2e-02, 3e+00]
  Bounds range    [1e+00, 1e+00]
  RHS range       [5e-01, 9e+00]
Presolve removed 728 rows and 199 columns
Presolve time: 0.06s
Presolved: 416 rows, 207 columns, 2209 nonzeros
Variable types: 2 continuous, 205 integer (205 binary)
Found heuristic solution: objective 2.4750972

Root relaxation: objective 2.089725e+00, 345 iterations, 0.03 seconds

    Nodes    |    Current Node    |     Objective Bounds      |     Work
 Expl Unexpl |  Obj  Depth IntInf | Incumbent    BestBd   Gap | It/Node Time

*    0     0               0       2.0897248    2.08972  0.00%     -    0s

Explored 0 nodes (404 simplex iterations) in 0.12 seconds
Thread count was 2 (of 4 available processors)

Optimal solution found (tolerance 1.00e-04)
Best objective 2.089724791492e+00, best bound 2.089724791492e+00, gap 0.0%

Gurobi 6.0.4 (win64) logging started 06/23/15 17:52:31

Optimize a model with 142 rows, 64 columns and 449 nonzeros
Coefficient statistics:
  Matrix range    [1e-02, 6e+00]
  Objective range [8e-02, 1e+00]
  Bounds range    [1e+00, 1e+00]
  RHS range       [5e-01, 8e+00]
Presolve removed 116 rows and 45 columns
Presolve time: 0.00s
Presolved: 26 rows, 19 columns, 85 nonzeros
Variable types: 0 continuous, 19 integer (19 binary)
Found heuristic solution: objective 0.9816257
Found heuristic solution: objective 0.9299324

Root relaxation: cutoff, 0 iterations, 0.00 seconds

Explored 0 nodes (0 simplex iterations) in 0.01 seconds
Thread count was 2 (of 4 available processors)

Optimal solution found (tolerance 1.00e-04)
Best objective 9.299324312500e-01, best bound 9.299324312500e-01, gap 0.0%

Gurobi 6.0.4 (win64) logging started 06/23/15 17:56:46

Optimize a model with 1144 rows, 406 columns and 4646 nonzeros
Coefficient statistics:
  Matrix range    [3e-03, 2e+01]
  Objective range [2e-02, 3e+00]
  Bounds range    [1e+00, 1e+00]
  RHS range       [5e-01, 9e+00]
Presolve removed 728 rows and 199 columns
Presolve time: 0.07s
Presolved: 416 rows, 207 columns, 2209 nonzeros
Variable types: 2 continuous, 205 integer (205 binary)
Found heuristic solution: objective 2.4750972

Root relaxation: objective 2.089725e+00, 345 iterations, 0.04 seconds

    Nodes    |    Current Node    |     Objective Bounds      |     Work
 Expl Unexpl |  Obj  Depth IntInf | Incumbent    BestBd   Gap | It/Node Time

*    0     0               0       2.0897248    2.08972  0.00%     -    0s

Explored 0 nodes (404 simplex iterations) in 0.15 seconds
Thread count was 2 (of 4 available processors)

Optimal solution found (tolerance 1.00e-04)
Best objective 2.089724791492e+00, best bound 2.089724791492e+00, gap 0.0%

Gurobi 6.0.4 (win64) logging started 06/23/15 17:59:08

Optimize a model with 1144 rows, 406 columns and 4646 nonzeros
Coefficient statistics:
  Matrix range    [3e-03, 2e+01]
  Objective range [2e-02, 3e+00]
  Bounds range    [1e+00, 1e+00]
  RHS range       [5e-01, 9e+00]
Presolve removed 728 rows and 199 columns
Presolve time: 0.05s
Presolved: 416 rows, 207 columns, 2209 nonzeros
Variable types: 2 continuous, 205 integer (205 binary)
Found heuristic solution: objective 2.4750972

Root relaxation: objective 2.089725e+00, 345 iterations, 0.04 seconds

    Nodes    |    Current Node    |     Objective Bounds      |     Work
 Expl Unexpl |  Obj  Depth IntInf | Incumbent    BestBd   Gap | It/Node Time

*    0     0               0       2.0897248    2.08972  0.00%     -    0s

Explored 0 nodes (404 simplex iterations) in 0.13 seconds
Thread count was 2 (of 4 available processors)

Optimal solution found (tolerance 1.00e-04)
Best objective 2.089724791492e+00, best bound 2.089724791492e+00, gap 0.0%

Gurobi 6.0.4 (win64) logging started 06/23/15 17:59:14

Optimize a model with 1144 rows, 406 columns and 4646 nonzeros
Coefficient statistics:
  Matrix range    [3e-03, 2e+01]
  Objective range [2e-02, 3e+00]
  Bounds range    [1e+00, 1e+00]
  RHS range       [5e-01, 9e+00]
Presolve removed 728 rows and 199 columns
Presolve time: 0.06s
Presolved: 416 rows, 207 columns, 2209 nonzeros
Variable types: 2 continuous, 205 integer (205 binary)
Found heuristic solution: objective 2.4750972

Root relaxation: objective 2.089725e+00, 345 iterations, 0.03 seconds

    Nodes    |    Current Node    |     Objective Bounds      |     Work
 Expl Unexpl |  Obj  Depth IntInf | Incumbent    BestBd   Gap | It/Node Time

*    0     0               0       2.0897248    2.08972  0.00%     -    0s

Explored 0 nodes (404 simplex iterations) in 0.12 seconds
Thread count was 2 (of 4 available processors)

Optimal solution found (tolerance 1.00e-04)
Best objective 2.089724791492e+00, best bound 2.089724791492e+00, gap 0.0%

Gurobi 6.0.4 (win64) logging started 06/23/15 17:59:30

Optimize a model with 1144 rows, 406 columns and 4646 nonzeros
Coefficient statistics:
  Matrix range    [3e-03, 2e+01]
  Objective range [2e-02, 3e+00]
  Bounds range    [1e+00, 1e+00]
  RHS range       [5e-01, 9e+00]
Presolve removed 728 rows and 199 columns
Presolve time: 0.05s
Presolved: 416 rows, 207 columns, 2209 nonzeros
Variable types: 2 continuous, 205 integer (205 binary)
Found heuristic solution: objective 2.4750972

Root relaxation: objective 2.089725e+00, 345 iterations, 0.02 seconds

    Nodes    |    Current Node    |     Objective Bounds      |     Work
 Expl Unexpl |  Obj  Depth IntInf | Incumbent    BestBd   Gap | It/Node Time

*    0     0               0       2.0897248    2.08972  0.00%     -    0s

Explored 0 nodes (404 simplex iterations) in 0.11 seconds
Thread count was 2 (of 4 available processors)

Optimal solution found (tolerance 1.00e-04)
Best objective 2.089724791492e+00, best bound 2.089724791492e+00, gap 0.0%

Gurobi 6.0.4 (win64) logging started 06/23/15 18:01:18

Optimize a model with 1144 rows, 406 columns and 4646 nonzeros
Coefficient statistics:
  Matrix range    [3e-03, 2e+01]
  Objective range [2e-02, 3e+00]
  Bounds range    [1e+00, 1e+00]
  RHS range       [5e-01, 9e+00]
Presolve removed 728 rows and 199 columns
Presolve time: 0.07s
Presolved: 416 rows, 207 columns, 2209 nonzeros
Variable types: 2 continuous, 205 integer (205 binary)
Found heuristic solution: objective 2.4750972

Root relaxation: objective 2.089725e+00, 345 iterations, 0.03 seconds

    Nodes    |    Current Node    |     Objective Bounds      |     Work
 Expl Unexpl |  Obj  Depth IntInf | Incumbent    BestBd   Gap | It/Node Time

*    0     0               0       2.0897248    2.08972  0.00%     -    0s

Explored 0 nodes (404 simplex iterations) in 0.14 seconds
Thread count was 2 (of 4 available processors)

Optimal solution found (tolerance 1.00e-04)
Best objective 2.089724791492e+00, best bound 2.089724791492e+00, gap 0.0%

Gurobi 6.0.4 (win64) logging started 06/23/15 18:01:26

Optimize a model with 1144 rows, 406 columns and 4646 nonzeros
Coefficient statistics:
  Matrix range    [3e-03, 2e+01]
  Objective range [2e-02, 3e+00]
  Bounds range    [1e+00, 1e+00]
  RHS range       [5e-01, 9e+00]
Presolve removed 728 rows and 199 columns
Presolve time: 0.05s
Presolved: 416 rows, 207 columns, 2209 nonzeros
Variable types: 2 continuous, 205 integer (205 binary)
Found heuristic solution: objective 2.4750972

Root relaxation: objective 2.089725e+00, 345 iterations, 0.03 seconds

    Nodes    |    Current Node    |     Objective Bounds      |     Work
 Expl Unexpl |  Obj  Depth IntInf | Incumbent    BestBd   Gap | It/Node Time

*    0     0               0       2.0897248    2.08972  0.00%     -    0s

Explored 0 nodes (404 simplex iterations) in 0.11 seconds
Thread count was 2 (of 4 available processors)

Optimal solution found (tolerance 1.00e-04)
Best objective 2.089724791492e+00, best bound 2.089724791492e+00, gap 0.0%

Gurobi 6.0.4 (win64) logging started 06/23/15 18:02:19

Optimize a model with 1144 rows, 406 columns and 4646 nonzeros
Coefficient statistics:
  Matrix range    [3e-03, 2e+01]
  Objective range [2e-02, 3e+00]
  Bounds range    [1e+00, 1e+00]
  RHS range       [5e-01, 9e+00]
Presolve removed 728 rows and 199 columns
Presolve time: 0.06s
Presolved: 416 rows, 207 columns, 2209 nonzeros
Variable types: 2 continuous, 205 integer (205 binary)
Found heuristic solution: objective 2.4750972

Root relaxation: objective 2.089725e+00, 345 iterations, 0.03 seconds

    Nodes    |    Current Node    |     Objective Bounds      |     Work
 Expl Unexpl |  Obj  Depth IntInf | Incumbent    BestBd   Gap | It/Node Time

*    0     0               0       2.0897248    2.08972  0.00%     -    0s

Explored 0 nodes (404 simplex iterations) in 0.14 seconds
Thread count was 2 (of 4 available processors)

Optimal solution found (tolerance 1.00e-04)
Best objective 2.089724791492e+00, best bound 2.089724791492e+00, gap 0.0%

Gurobi 6.0.4 (win64) logging started 06/23/15 18:03:34

Optimize a model with 1144 rows, 406 columns and 4646 nonzeros
Coefficient statistics:
  Matrix range    [3e-03, 2e+01]
  Objective range [2e-02, 3e+00]
  Bounds range    [1e+00, 1e+00]
  RHS range       [5e-01, 9e+00]
Presolve removed 728 rows and 199 columns
Presolve time: 0.08s
Presolved: 416 rows, 207 columns, 2209 nonzeros
Variable types: 2 continuous, 205 integer (205 binary)
Found heuristic solution: objective 2.4750972

Root relaxation: objective 2.089725e+00, 345 iterations, 0.02 seconds

    Nodes    |    Current Node    |     Objective Bounds      |     Work
 Expl Unexpl |  Obj  Depth IntInf | Incumbent    BestBd   Gap | It/Node Time

*    0     0               0       2.0897248    2.08972  0.00%     -    0s

Explored 0 nodes (404 simplex iterations) in 0.15 seconds
Thread count was 2 (of 4 available processors)

Optimal solution found (tolerance 1.00e-04)
Best objective 2.089724791492e+00, best bound 2.089724791492e+00, gap 0.0%

Gurobi 6.0.4 (win64) logging started 06/23/15 18:24:04

Optimize a model with 1144 rows, 406 columns and 4646 nonzeros
Coefficient statistics:
  Matrix range    [3e-03, 2e+01]
  Objective range [2e-02, 3e+00]
  Bounds range    [1e+00, 1e+00]
  RHS range       [5e-01, 9e+00]
Presolve removed 728 rows and 199 columns
Presolve time: 0.05s
Presolved: 416 rows, 207 columns, 2209 nonzeros
Variable types: 2 continuous, 205 integer (205 binary)
Found heuristic solution: objective 2.4750972

Root relaxation: objective 2.089725e+00, 345 iterations, 0.02 seconds

    Nodes    |    Current Node    |     Objective Bounds      |     Work
 Expl Unexpl |  Obj  Depth IntInf | Incumbent    BestBd   Gap | It/Node Time

*    0     0               0       2.0897248    2.08972  0.00%     -    0s

Explored 0 nodes (404 simplex iterations) in 0.12 seconds
Thread count was 2 (of 4 available processors)

Optimal solution found (tolerance 1.00e-04)
Best objective 2.089724791492e+00, best bound 2.089724791492e+00, gap 0.0%

Gurobi 6.0.4 (win64) logging started 06/23/15 18:24:15

Optimize a model with 1144 rows, 406 columns and 4646 nonzeros
Coefficient statistics:
  Matrix range    [3e-03, 2e+01]
  Objective range [2e-02, 3e+00]
  Bounds range    [1e+00, 1e+00]
  RHS range       [5e-01, 9e+00]
Presolve removed 728 rows and 199 columns
Presolve time: 0.05s
Presolved: 416 rows, 207 columns, 2209 nonzeros
Variable types: 2 continuous, 205 integer (205 binary)
Found heuristic solution: objective 2.4750972

Root relaxation: objective 2.089725e+00, 345 iterations, 0.02 seconds

    Nodes    |    Current Node    |     Objective Bounds      |     Work
 Expl Unexpl |  Obj  Depth IntInf | Incumbent    BestBd   Gap | It/Node Time

*    0     0               0       2.0897248    2.08972  0.00%     -    0s

Explored 0 nodes (404 simplex iterations) in 0.12 seconds
Thread count was 2 (of 4 available processors)

Optimal solution found (tolerance 1.00e-04)
Best objective 2.089724791492e+00, best bound 2.089724791492e+00, gap 0.0%

Gurobi 6.0.4 (win64) logging started 06/23/15 18:24:37

Optimize a model with 1144 rows, 406 columns and 4646 nonzeros
Coefficient statistics:
  Matrix range    [3e-03, 2e+01]
  Objective range [2e-02, 3e+00]
  Bounds range    [1e+00, 1e+00]
  RHS range       [5e-01, 9e+00]
Presolve removed 728 rows and 199 columns
Presolve time: 0.05s
Presolved: 416 rows, 207 columns, 2209 nonzeros
Variable types: 2 continuous, 205 integer (205 binary)
Found heuristic solution: objective 2.4750972

Root relaxation: objective 2.089725e+00, 345 iterations, 0.02 seconds

    Nodes    |    Current Node    |     Objective Bounds      |     Work
 Expl Unexpl |  Obj  Depth IntInf | Incumbent    BestBd   Gap | It/Node Time

*    0     0               0       2.0897248    2.08972  0.00%     -    0s

Explored 0 nodes (404 simplex iterations) in 0.11 seconds
Thread count was 2 (of 4 available processors)

Optimal solution found (tolerance 1.00e-04)
Best objective 2.089724791492e+00, best bound 2.089724791492e+00, gap 0.0%
